70	100	100	100
6	8	6
3	3	5
5	5	9
3	8	7
2	3	1
6	8	7
9	5	6
6	3	8
2	8	8
4	4	1
9	6	3
2	4	7
1	8	2
8	3	3
1	7	5
6	8	5
2	2	3
1	5	4
3	4	8
4	9	7
9	8	3
1	8	9
7	2	7
1	2	4
2	3	8
1	5	1
8	4	3
1	8	6
1	6	3
5	7	6
9	6	4
7	9	1
2	8	8
1	7	4
7	9	8
5	9	2
8	6	1
9	4	9
3	9	7
7	9	9
9	4	5
1	5	4
2	9	5
2	8	9
6	7	4
1	7	2
5	2	8
9	1	6
5	3	1
9	5	2
7	3	4
1	5	4
4	8	1
4	6	5
9	2	5
3	8	4
3	8	5
2	2	4
7	4	6
8	5	7
5	3	2
7	5	7
3	4	4
4	9	9
2	6	5
9	5	1
7	4	6
7	9	6
8	2	3
3	6	1
